c preprocessed version of munin3-wpp, 79 vertices, 265 edges
p td 79 265
1 0
2 0
11 0
16 0
71 0
2 1
6 1
13 1
3 2
9 2
3 4
3 8
3 20
3 24
3 30
3 33
3 40
3 50
3 44
3 55
3 73
3 9
70 3
60 3
62 3
64 3
10 3
26 3
36 3
66 3
47 3
59 3
57 3
69 3
5 4
9 4
72 4
6 5
72 5
13 5
6 7
6 21
6 23
6 31
6 27
6 34
6 41
6 37
6 43
6 51
6 46
6 74
6 54
6 56
6 58
6 61
6 63
6 65
6 67
6 68
6 14
6 12
13 6
8 7
7 17
13 7
9 8
8 17
10 9
9 20
9 24
9 30
9 33
9 40
9 50
9 44
9 55
9 73
70 9
60 9
62 9
64 9
26 9
36 9
66 9
47 9
59 9
57 9
69 9
10 11
10 12
12 11
16 11
71 11
72 11
13 12
13 14
13 18
13 19
13 21
13 23
13 27
13 28
13 29
13 31
13 34
13 37
13 61
13 63
13 65
13 67
13 71
13 72
13 41
13 38
39 13
14 15
70 14
16 15
15 17
70 15
18 15
19 15
16 17
16 22
16 25
16 32
16 35
16 42
16 45
16 52
16 53
16 58
16 59
16 60
16 61
16 62
16 63
16 64
16 65
16 66
16 67
68 16
69 16
18 17
18 19
19 20
19 21
21 20
23 22
24 22
25 22
28 22
24 23
26 25
27 25
28 25
29 25
26 27
28 29
29 30
29 31
31 30
33 32
34 32
35 32
38 32
33 34
36 35
37 35
38 35
39 35
36 37
38 39
39 40
39 41
41 40
43 42
44 42
45 42
48 42
44 43
46 45
47 45
48 45
49 45
46 47
48 49
49 50
49 51
51 50
52 53
56 52
57 52
54 53
55 53
55 54
56 57
58 59
60 61
62 63
64 65
66 67
68 69
71 72
74 73
75 71
75 72
75 1
75 6
75 5
75 21
75 7
75 51
75 43
75 74
75 54
75 31
75 23
75 41
75 34
75 13
75 76
75 14
75 61
75 63
75 65
75 12
75 27
75 37
75 67
75 46
75 58
75 56
75 68
75 18
75 28
75 19
75 29
75 38
75 48
75 77
75 39
75 49
76 6
76 43
76 51
76 48
76 46
76 74
76 54
76 56
76 58
76 68
76 77
76 13
76 49
77 78
77 52
77 53
78 75
78 76
78 52
78 74
78 73
